
(set-logic ALL) 

(declare-datatype MyList ((Nil) (Cons (head Real) (tail MyList)) )) 
(declare-fun l0 () MyList) 
(declare-fun l1 () MyList) 
(declare-fun l2 () MyList) 
(declare-fun l3 () MyList) 
(declare-fun i0 () Real) 
(declare-fun i1 () Real) 
(assert (is-Nil Nil) )
(assert (not (= l1 Nil)) )
(assert (and (= l3 Nil) (= l3 l3)) )
(assert (is-Cons Nil) )
(assert (or (is-Nil Nil) (is-Cons Nil)) )
(assert (not (= l0 Nil)) )
(assert (not (= l2 Nil)) )
(assert (is-Nil Nil) )
(check-sat)
